LAMMPS (29 Sep 2021 - Update 2)
  using 1 OpenMP thread(s) per MPI task

# --------------------------------------------------------------------------------------------------
# rutile TiO2 WITHOUT electric field
# NOTE: according to wikipedia, rutile melts at ~2200 K


# --------------------------------------------------------------------------------------------------
# define simulation domain
# --------------------------------------------------------------------------------------------------

units           metal
dimension       3
newton          on
boundary        p p p
atom_style      charge

comm_modify     cutoff 48
neighbor        2.0 bin
neigh_modify    every 100 delay 0 check yes

# --------------------------------------------------------------------------------------------------
# define simulation paramters
# --------------------------------------------------------------------------------------------------

variable        dt equal    0.001         # timestep
variable        dt_dump     equal 16

variable	t_sim       equal 300

variable        therm_run equal 50000   # thermalize at T
variable        sqw_run equal 64000 # 4000 steps written to file

variable        trj_dump equal 500
variable        thermo_dump equal 500

# --------------------------------------------------------------------------------------------------
# define crystal
# --------------------------------------------------------------------------------------------------

read_data       rutile.prim.pos
Reading data file ...
  orthogonal box = (0.0000000 0.0000000 0.0000000) to (4.5930000 4.5930000 2.9590000)
  2 by 5 by 1 MPI processor grid
  reading atoms ...
  6 atoms
  read_data CPU = 0.001 seconds
replicate       10 10 12
Replicating atoms ...
  orthogonal box = (0.0000000 0.0000000 0.0000000) to (45.930000 45.930000 35.508000)
  2 by 5 by 1 MPI processor grid
  7200 atoms
  replicate CPU = 0.000 seconds

# --------------------------------------------------------------------------------------------------
# define potential
# --------------------------------------------------------------------------------------------------

pair_style      buck/coul/long 12.0 # cutoff Buckingham at 10 A, use Ewald for Coulomb (not cut off)

pair_coeff      1 1     31120.43 0.154  5.2469
pair_coeff      1 2     16957.67 0.194 12.5926
pair_coeff      2 2     11782.85 0.234 30.2222

kspace_style    pppm 1.0e-5

# --------------------------------------------------------------------------------------------------
# set some more params
# --------------------------------------------------------------------------------------------------

timestep        ${dt}
timestep        0.001
reset_timestep  0

thermo          ${thermo_dump}
thermo          500
thermo_style    custom step etotal temp pe press pxx pyy pzz fmax lx ly lz

dump            TRJ all custom ${trj_dump} sim.lammpstrj id type x y z
dump            TRJ all custom 500 sim.lammpstrj id type x y z
dump_modify     TRJ sort id

# --------------------------------------------------------------------------------------------------
# NPT run, no field
# --------------------------------------------------------------------------------------------------

fix             THERM all npt temp ${t_sim} ${t_sim} $(100.0*dt)                             x 0.0 0.0 $(1000.0*dt) y 0.0 0.0 $(1000.0*dt) z 0.0 0.0 $(1000.0*dt)
fix             THERM all npt temp 300 ${t_sim} $(100.0*dt)                             x 0.0 0.0 $(1000.0*dt) y 0.0 0.0 $(1000.0*dt) z 0.0 0.0 $(1000.0*dt)
fix             THERM all npt temp 300 300 $(100.0*dt)                             x 0.0 0.0 $(1000.0*dt) y 0.0 0.0 $(1000.0*dt) z 0.0 0.0 $(1000.0*dt)
fix             THERM all npt temp 300 300 0.10000000000000000555                             x 0.0 0.0 $(1000.0*dt) y 0.0 0.0 $(1000.0*dt) z 0.0 0.0 $(1000.0*dt)
fix             THERM all npt temp 300 300 0.10000000000000000555                             x 0.0 0.0 1 y 0.0 0.0 $(1000.0*dt) z 0.0 0.0 $(1000.0*dt)
fix             THERM all npt temp 300 300 0.10000000000000000555                             x 0.0 0.0 1 y 0.0 0.0 1 z 0.0 0.0 $(1000.0*dt)
fix             THERM all npt temp 300 300 0.10000000000000000555                             x 0.0 0.0 1 y 0.0 0.0 1 z 0.0 0.0 1
run             ${therm_run}
run             50000
PPPM initialization ...
  using 12-bit tables for long-range coulomb (src/kspace.cpp:340)
  G vector (1/distance) = 0.27638054
  grid = 48 48 40
  stencil order = 5
  estimated absolute RMS force accuracy = 0.00014262502
  estimated relative force accuracy = 9.9047596e-06
  using double precision FFTW3
  3d grid and FFT values/proc = 24769 9600
Neighbor list info ...
  update every 100 steps, delay 0 steps, check yes
  max neighbors/atom: 2000, page size: 100000
  master list distance cutoff = 14
  ghost atom cutoff = 48
  binsize = 7, bins = 7 7 6
  1 neighbor lists, perpetual/occasional/extra = 1 0 0
  (1) pair buck/coul/long, perpetual
      attributes: half, newton on
      pair build: half/bin/atomonly/newton
      stencil: half/bin/3d
      bin: standard
Per MPI rank memory allocation (min/avg/max) = 43.67 | 43.90 | 44.05 Mbytes
Step TotEng Temp PotEng Press Pxx Pyy Pzz Fmax Lx Ly Lz 
       0   -95412.074            0   -95412.074   -49734.679   -85785.528   -85785.528    22367.019   0.17772471        45.93        45.93       35.508 
     500   -95501.583    1.9511689   -95503.398    5608.5984    1341.7148    1341.7144    14142.366     0.278832    44.941435    44.941435    36.088951 
    1000   -95471.843    2.9244791   -95474.564    10842.385    3778.1423    3778.1409    24970.872   0.49031426    44.952382    44.952382     36.08325 
    1500    -95377.49     6.955173   -95383.962    21345.742    9279.4197    9279.4193    45478.388   0.87514779    44.999683    44.999683    36.065288 
    2000   -95134.327     59.35511    -95189.56    37194.403    18995.264    18995.263    73592.681    1.3880092    45.123104    45.123104      36.0291 
    2500     -94927.6    404.29253   -95303.812     17310.81    1158.6226    1158.6226    49615.186    1.0653818    45.247567    45.247567    36.007145 
    3000   -94946.312     601.4331   -95505.972   -17008.134   -21435.097   -21435.097   -8154.2097  0.075735221    45.240377    45.240377      36.0369 
    3500   -94963.057    430.91531   -95364.043   -26116.603   -16060.355   -16060.353   -46229.102   0.84917771    45.233738    45.233738    36.064687 
    4000   -94960.023    113.16122   -95065.325   -17412.351    5470.2199    5470.2216   -63177.495    1.5094562    45.234657    45.234657    36.083326 
    4500   -94951.883    8.9869133   -94960.246   -13509.401    13189.052    13189.051   -66906.307    1.6909315    45.238518    45.238518    36.091493 
    5000   -94951.254    246.55969   -95180.688   -22853.741   -4379.4713   -4379.4339   -59802.317    1.3215904    45.241197    45.241197      36.0877 
    5500    -94954.85    539.23916   -95456.635   -26932.388   -22732.383   -22732.402   -35332.379   0.74874245    45.239818    45.239827    36.071665 
    6000   -94956.596    487.26129   -95410.014   -3924.0806   -13612.339   -13615.345    15455.442    1.5063754    45.208735    45.209035    36.058883 
    6500   -94954.935    169.79958   -95112.941    9114.3303   -1119.9502   -627.11849     29090.06    2.7687073    44.963335    44.968327    36.199074 
    7000   -94951.456    221.97598   -95158.015   -10823.299    2278.0057    2773.7223   -37521.625    3.9531478    45.053523    45.046449    36.200401 
    7500   -94958.402    257.43273   -95197.954    2763.6361   -539.68869   -578.95603    9409.5531       3.4238    44.957095    44.963877    36.232169 
    8000   -94957.004    329.53016   -95263.646    4231.9721    2356.0318     2206.089    8133.7957    3.0517374     44.96996     44.98482    36.222279 
    8500   -94955.276    310.17737   -95243.909   -589.08411    595.90602      687.149   -3050.3073    3.7789146     44.96345    44.978067    36.240585 
    9000   -94954.862    298.03487   -95232.197    -1806.392    -1279.171   -1261.3235   -2878.6816    3.4859208    44.969604    44.978021    36.240439 
    9500   -94956.402    311.51587   -95246.281   -3240.2199   -535.85732   -365.11837    -8819.684    2.8077419    44.977147    44.976457    36.240193 
   10000   -94957.865    298.63127   -95235.755   -145.20934   -656.70757   -783.05373    1004.1333    2.8233312    44.975966    44.981213    36.234826 
   10500    -94956.69    301.18048   -95236.952    1056.2073     1021.546     1036.812    1110.2641    3.0668481     44.97836    44.987943    36.230429 
   11000   -94954.996    297.72921   -95232.046    2964.3497    1163.6305    1495.0371    6234.3814    3.5775715    44.986798    44.994701    36.222903 
   11500   -94954.971    307.97598   -95241.557    2801.3365    466.48719    846.34514    7091.1771    3.0370878    44.997876    44.994521    36.218718 
   12000   -94956.262    309.21051   -95243.996    1147.1546    208.06109   -45.042143     3278.445    2.8796015    44.996404    45.002679    36.213629 
   12500   -94956.905    306.19686   -95241.834   -1026.8249   -1136.1821   -1480.4228   -463.86974    3.3171861    45.014364    45.007228    36.206335 
   13000   -94955.596      302.515   -95237.099   -2341.0247   -3168.3456   -1953.4676   -1901.2609    3.1813303    45.036467    45.014772    36.199918 
   13500   -94954.164    300.08146   -95233.402   -615.78481   -1680.2801    -1889.482    1722.4077    3.1301421    45.029533    45.027388    36.181263 
   14000   -94954.711    302.76939   -95236.452    1439.5847   -77.486774   -366.61587    4762.8568     3.394415    45.007758    45.026802      36.1876 
   14500   -94956.017    300.00637   -95235.187    128.84773   -954.91923   -1428.8405    2770.3029    4.4787361    45.015393    45.022717    36.214062 
   15000   -94956.391    296.11958   -95231.944    760.92927   -67.712606    362.74344     1987.757    3.8586999    45.012116    44.998342    36.227822 
   15500   -94955.175    301.16098   -95235.419    1328.6335    881.69198    1593.9155    1510.2931    3.4295713    44.999359    44.988338    36.231515 
   16000   -94954.331    299.96709   -95233.463    -98.38088    158.64163    821.76227   -1275.5465    4.0695304    45.001251    44.985992    36.243263 
   16500   -94954.928    299.66885   -95233.783   -395.35137    1022.8853    901.97337   -3110.9128    3.2244957    44.983151    44.995874    36.251499 
   17000   -94956.003    300.58819   -95235.713    70.212078    2212.9849    1061.0612   -3063.4098    3.6042229    44.949464    45.005953     36.26051 
   17500   -94955.679    300.77214    -95235.56    681.30374    2409.5595    2122.2252   -2487.8735     3.276773    44.960333    44.991929    36.258111 
   18000   -94954.691    300.21601   -95234.055   -886.11755   -87.107484   -226.87674   -2344.3684    3.4905413    45.001426    45.003085    36.241855 
   18500   -94954.476    301.93481    -95235.44   -466.21826   -358.63923   -214.06751   -825.94805     3.447879    45.021295    45.000017    36.225506 
   19000   -94955.318    298.86468   -95233.425    233.43071     143.1141   -105.39473    662.57276    3.6164395    45.022682    45.004104    36.214455 
   19500   -94955.809    301.22246    -95236.11   -188.38292   -540.84287   -804.34197    780.03609    3.4253627    45.016449     45.01941    36.215968 
   20000   -94955.215    301.11029   -95235.412    113.94576   -383.90821   -849.76313    1575.5086    3.7593264    45.013289    45.034089     36.20325 
   20500   -94954.537    297.63602     -95231.5   -47.438158    -1528.907   -1090.3257    2476.9182    3.2647415    45.034801    45.031946     36.18859 
   21000   -94954.829    299.95633   -95233.951    14.080276   -2022.2395   -1564.4766    3628.9569    4.1403548     45.06097    45.024583    36.171941 
   21500   -94955.367    298.30743   -95232.955   -253.90361   -1462.4622   -1457.7712    2158.5225    3.2454936    45.052166    45.020203    36.188781 
   22000   -94955.208    299.57189   -95233.973   -391.58317   -835.12528   -1447.1207    1107.4965    3.3216644    45.019138    45.028897    36.203966 
   22500   -94954.932    303.51245   -95237.364    3.9545013    -52.70537   -15.779731    80.348605    3.9273475    45.006205    45.016954    36.218023 
   23000   -94954.993    299.49998   -95233.691   -87.056736    38.423857     608.4679   -908.06196    3.8273923    45.011157    45.002604    36.227413 
   23500   -94955.259    299.71607   -95234.158    333.36025    1188.6296     1268.091   -1456.6399    3.6976727    45.004603     44.98833    36.237714 
   24000   -94955.079    299.67038   -95233.935   -917.87777    188.90902    442.32064    -3384.863     3.435919    45.006826    44.988539    36.255035 
   24500   -94954.732    299.20019   -95233.151   -715.70349     752.7879    664.65586   -3564.5542    3.4140134    44.990976    44.992304    36.259657 
   25000   -94955.047    298.24436   -95232.576    1317.1754     2619.194    1999.8769    -667.5447    3.4960992    44.967417    45.000858    36.240868 
   25500   -94955.405    302.26407   -95236.675   -30.809831    643.86469    345.14418   -1081.4384    3.5227482    44.990689    45.012543    36.230395 
   26000    -94955.49    298.53772   -95233.293   -372.65963   -132.02322   -523.31377   -462.64189    3.4131896    45.012461    45.014801    36.222082 
   26500   -94955.027    300.69852    -95234.84   -107.79392   -652.55991   -58.881959    388.06009    3.7246413    45.018738    45.011724    36.215666 
   27000   -94954.363    304.16657   -95237.403    1200.3648    569.31849    665.61802    2366.1579    3.6114426    45.014287    45.010489    36.202444 
   27500    -94955.11      298.194   -95232.592   -398.98552   -1144.1524    -1627.821    1575.0168    3.6656892    45.024667    45.034448    36.201564 
   28000   -94955.616    298.12779   -95233.037   -2073.0206    -2691.992   -3408.6353   -118.43442    3.0349596    45.036289    45.048956     36.19974 
   28500   -94955.287    296.47754   -95231.172    1645.7132   -239.98417    815.54643    4361.5772    3.1346612    45.041139    45.010948    36.176287 
   29000    -94954.58    301.12233   -95234.788    678.21664   -659.80222    40.543079    2653.9091     3.555349    45.035558    45.014901    36.191841 
   29500   -94954.759     299.6613   -95233.607   -1215.2087   -1287.8301   -1600.7405   -757.05567    3.3011665    45.018223    45.032714    36.218518 
   30000   -94955.366    301.21706   -95235.662   -75.594008    675.99878   -327.14494   -575.63586    3.2898207    44.999557    45.019172    36.223217 
   30500   -94955.492    297.32406   -95232.165    1125.6938    1142.0319     1869.246    365.80359    3.6386618    45.004015    44.993126    36.221605 
   31000   -94955.015    297.32656    -95231.69   -1077.2889    -962.6082    187.82459   -2457.0832    4.1198475    45.023828    44.995084    36.235826 
   31500   -94954.345    296.77585   -95230.508   -1032.6428    120.93383    292.73006   -3511.5924    4.1024091    45.008385    44.996259    36.248717 
   32000   -94954.992    303.12717   -95237.065    2338.3636     3871.258    3057.2447    86.588103    3.7405248     44.96306      44.9918    36.234244 
   32500    -94956.13    300.63216   -95235.881   -287.95408    1066.3597    713.82839   -2644.0503    4.5506589    44.966971    45.019295    36.249403 
   33000   -94955.603    303.39686   -95237.927   -1509.9547   -914.95966   -1123.7815   -2491.1229    3.4388589    45.005696    45.018323    36.241263 
   33500   -94954.252    297.96583   -95231.523    1095.5429    867.48686    1058.3526    1360.7893    3.2323464     45.01539    44.998254     36.21516 
   34000   -94954.099    299.47608   -95232.774    1101.7218    732.48421    646.16168    1926.5194    3.2456718    45.013482    45.006058    36.208888 
   34500   -94955.764    299.93139   -95234.863      35.8838   -605.65235   -473.15581    1186.4596    3.5356564    45.018594    45.018423    36.209428 
   35000   -94956.588    297.52115   -95233.444   -936.81247   -1250.4658   -2006.0172    446.04565    3.4304998    45.020943    45.033702    36.208755 
   35500    -94955.09    302.01153   -95236.125    1161.4377    130.23997   -33.647326    3387.7205    3.5219984    45.016904    45.023991    36.187341 
   36000   -94953.689     300.3466   -95233.175    2329.2869    918.64274    1212.2062    4857.0119    3.7030572    45.022832    45.008858    36.182006 
   36500    -94954.24    300.38544   -95233.761   -1775.2237   -2499.6472   -1691.1834   -1134.8405    3.4056708    45.044553    45.017534    36.216794 
   37000   -94956.246    299.09659   -95234.568   -1186.3039   -1187.2161   -875.94347   -1495.7521    3.4484225    45.023538    45.013961    36.221661 
   37500   -94956.593    299.24684   -95235.055    1373.1693    1598.7319    1460.0721    1060.7039    3.0152116    44.995007    45.011766    36.213991 
   38000   -94954.406    298.03123   -95231.737     53.85924    482.94415   -63.187846   -258.17858    3.5464165    44.998112    45.018478    36.222912 
   38500   -94952.459    297.86709   -95229.637   -1499.9043   -942.42958   -901.41275   -2655.8705    3.8292044     45.01109     45.01809    36.238277 
   39000   -94954.427     299.7565   -95233.363    1269.2508    1636.0126    2553.9864   -382.24659    3.7891377    45.011841    44.971016    36.230586 
   39500   -94959.251    298.10487    -95236.65    1969.5227    2546.6434     3679.769   -317.84425     3.274538    44.995494    44.960518    36.238561 
   40000   -94958.129    297.65779   -95235.113   -1754.1906   -715.56909   -1229.9001   -3317.1025     3.227582    44.994962    45.022924    36.248513 
   40500   -94956.245    302.11225   -95237.374    -521.1499    118.43199   -407.15809   -1274.7236    3.2854462    44.989652    45.024725     36.23054 
   41000   -94952.939    304.56416   -95236.349     518.9752    865.89801     687.2653    3.7622916    3.4340326    44.995348    45.006141    36.222121 
   41500   -94947.602    307.26124   -95233.522   -357.33035   -402.89921   -197.23099   -471.86085    4.0333812    45.020394    45.003687    36.224321 
   42000   -94952.012    299.64372   -95230.843   -609.65457   -1297.6612   -682.23587    150.93331    3.1745612    45.037732    44.999662     36.21784 
   42500   -94957.894    300.01154   -95237.068    585.31436   -141.86615    327.09939    1570.7098    3.6277248     45.01913    45.009191    36.204038 
   43000   -94959.613    298.55411    -95237.43    718.98562   -99.732597   -945.35938    3202.0488     3.483743    44.995841    45.051243    36.185631 
   43500   -94961.834    297.21251   -95238.403   -1531.4258   -1846.9636   -3309.3563     562.0426    3.6331592    45.005188    45.072083    36.194393 
   44000   -94957.042    300.86238   -95237.008    -39.71005   -1247.7972   -1102.9053    2231.5723    3.3813756    45.035108    45.027852    36.189067 
   44500   -94953.289    297.08713   -95229.742    524.17051    -1088.655    372.28374    2288.8828    3.3253764    45.045831     44.99595    36.197151 
   45000   -94953.394    300.49911   -95233.022   -362.83326   -1301.9352   -148.22108    361.65647    3.0691049    45.030692    45.007096    36.210927 
   45500    -94962.39    295.99674   -95237.828    184.47493    602.26979   -196.19021     147.3452    3.2862314    44.994084    45.021157    36.216168 
   46000   -94960.982    297.94143   -95238.229    230.50177    1658.1354    213.85204   -1180.4822    3.5911053    44.971623    45.023643    36.227948 
   46500   -94958.364    299.45635   -95237.021   -1046.4322    438.21683   -202.83472   -3374.6786    3.5817697    44.991286    45.013606    36.245908 
   47000   -94956.613     295.5611   -95231.645   -619.88295   -176.19585    1615.3786   -3298.8316    3.1145437    45.024316    44.966511    36.249099 
   47500   -94949.727    304.25184   -95232.847    966.00908    1469.2972    2621.7759   -1193.0459    3.0643583    45.013045    44.957488    36.240214 
   48000   -94947.936    299.58127    -95226.71    184.63575    1300.8859    304.01406   -1050.9927    3.8467268    44.985726    45.012291    36.237529 
   48500   -94954.544    297.49155   -95231.373   -811.45258     361.4333   -1048.5056   -1747.2854    3.9282987    44.974695    45.046007    36.233357 
   49000   -94957.109    296.54553   -95233.057    629.75136    899.71661    99.235015    890.30245    3.9568925    44.983393    45.030568    36.218709 
   49500   -94958.027    298.76398    -95236.04    271.46029   -329.48508    366.70546     777.1605    3.6975997    45.025512    44.993705    36.210388 
   50000   -94958.604    297.50645   -95235.447   -781.53401   -2089.3356   -11.684075   -243.58237    3.2484746    45.071158    44.969677    36.213752 
Loop time of 732.999 on 10 procs for 50000 steps with 7200 atoms

Performance: 5.894 ns/day, 4.072 hours/ns, 68.213 timesteps/s
96.9% CPU use with 10 MPI tasks x 1 OpenMP threads

MPI task timing breakdown:
Section |  min time  |  avg time  |  max time  |%varavg| %total
---------------------------------------------------------------
Pair    | 226.66     | 271.06     | 378.89     | 238.4 | 36.98
Kspace  | 115.72     | 248.64     | 300.62     | 299.7 | 33.92
Neigh   | 0.0047166  | 0.0055794  | 0.0078352  |   1.4 |  0.00
Comm    | 156.22     | 162.05     | 171.44     |  42.4 | 22.11
Output  | 0.078065   | 0.078173   | 0.078976   |   0.1 |  0.01
Modify  | 24.486     | 28.756     | 44.551     | 101.7 |  3.92
Other   |            | 22.41      |            |       |  3.06

Nlocal:        720.000 ave         788 max         660 min
Histogram: 4 0 0 0 0 0 2 2 1 1
Nghost:        161146.0 ave      161206 max      161078 min
Histogram: 1 1 2 2 0 0 0 0 0 4
Neighs:        411360.0 ave      449743 max      374152 min
Histogram: 4 0 0 0 0 1 1 0 3 1

Total # of neighbors = 4113600
Ave neighs/atom = 571.33333
Neighbor list builds = 1
Dangerous builds = 1
unfix           THERM

#fix             NVE all nve
#run             ${therm_run}
#unfix           NVE

# --------------------------------------------------------------------------------------------------
# write positions for SQW calculation
# --------------------------------------------------------------------------------------------------

#dump            POSITIONS all h5md ${dt_dump} pos.h5 position species
#dump_modify     POSITIONS sort id

dump            POSITIONS all custom ${dt_dump} pos.dat id type xu yu zu
dump            POSITIONS all custom 16 pos.dat id type xu yu zu
dump_modify     POSITIONS sort id

fix             SQW all npt temp ${t_sim} ${t_sim} $(100.0*dt)                             x 0.0 0.0 $(1000.0*dt) y 0.0 0.0 $(1000.0*dt) z 0.0 0.0 $(1000.0*dt)
fix             SQW all npt temp 300 ${t_sim} $(100.0*dt)                             x 0.0 0.0 $(1000.0*dt) y 0.0 0.0 $(1000.0*dt) z 0.0 0.0 $(1000.0*dt)
fix             SQW all npt temp 300 300 $(100.0*dt)                             x 0.0 0.0 $(1000.0*dt) y 0.0 0.0 $(1000.0*dt) z 0.0 0.0 $(1000.0*dt)
fix             SQW all npt temp 300 300 0.10000000000000000555                             x 0.0 0.0 $(1000.0*dt) y 0.0 0.0 $(1000.0*dt) z 0.0 0.0 $(1000.0*dt)
fix             SQW all npt temp 300 300 0.10000000000000000555                             x 0.0 0.0 1 y 0.0 0.0 $(1000.0*dt) z 0.0 0.0 $(1000.0*dt)
fix             SQW all npt temp 300 300 0.10000000000000000555                             x 0.0 0.0 1 y 0.0 0.0 1 z 0.0 0.0 $(1000.0*dt)
fix             SQW all npt temp 300 300 0.10000000000000000555                             x 0.0 0.0 1 y 0.0 0.0 1 z 0.0 0.0 1
run             ${sqw_run}
run             64000
PPPM initialization ...
  using 12-bit tables for long-range coulomb (src/kspace.cpp:340)
  G vector (1/distance) = 0.27467799
  grid = 45 45 40
  stencil order = 5
  estimated absolute RMS force accuracy = 0.00016849815
  estimated relative force accuracy = 1.1701549e-05
  using double precision FFTW3
  3d grid and FFT values/proc = 21808 8280
Per MPI rank memory allocation (min/avg/max) = 47.47 | 47.48 | 47.49 Mbytes
Step TotEng Temp PotEng Press Pxx Pyy Pzz Fmax Lx Ly Lz 
   50000   -94958.561    297.50645   -95235.403   -774.36381   -2081.9273   -4.2124777   -236.95162    3.2479225    45.071158    44.969677    36.213752 
   50500   -94953.702    302.26085   -95234.969   -151.52973   -886.69295   -423.47994    855.58369    3.4321264    45.037302    44.998071    36.210062 
   51000   -94950.214    306.28251   -95235.223    892.51592    918.15233   -303.57514    2062.9706    3.3173628    44.979976    45.046072     36.20276 
   51500    -94955.06    297.72471   -95232.106   -349.54896    804.42718    -1601.886   -251.18803    3.2576706    44.953367    45.080097     36.21605 
   52000   -94955.241    300.34542   -95234.726   -1038.2168   -376.99505   -870.27305   -1867.3823    3.3894465    44.990483    45.031408    36.230098 
   52500   -94955.113    299.27979   -95233.606   -89.328003   -109.65673    634.44222   -792.76949    3.3237807    45.029284    44.987037    36.226088 
   53000   -94953.442    299.23804   -95231.896    41.119556    -366.0379    698.78854   -209.39197    3.6435188    45.033072    44.987323    36.222587 
   53500   -94956.158    300.05112   -95235.369    401.18104    184.12996    808.34095    211.07222    3.4645174    45.009291    45.004991    36.219886 
   54000   -94957.728    296.66856   -95233.791   -550.86358     57.74739   -1129.6023   -580.73579    3.7399653    44.982337    45.040468    36.225204 
   54500   -94957.465    297.42338    -95234.23    918.09314    2074.7955     208.5976     470.8863    3.5195135    44.962549    45.038664     36.22175 
   55000   -94954.565    298.35004   -95232.193    912.22486     954.8544    1675.6051     106.2151     3.461002    45.019209    44.979232     36.21844 
   55500   -94950.638    303.08442   -95232.671   -1427.2432   -2434.7723    179.24765    -2026.205    3.1476968    45.080965    44.954951    36.227354 
   56000   -94955.136     297.1166   -95231.616   -664.67429   -1597.8045   -390.87984   -5.3385618    3.1618249    45.045133    44.997972    36.213463 
   56500   -94963.062    295.80265   -95238.319    682.22525    560.58889   -257.70581    1743.7927    3.3781355    44.988997    45.039908    36.203394 
   57000   -94956.842    295.14961   -95231.492    649.72078    394.45086   -1052.3283    2607.0398    3.4119341    44.982484    45.054524    36.199504 
   57500   -94954.136    301.30903   -95234.517   -873.22241   -1253.1674   -1550.0473    183.54742     3.631582    45.028156    45.027803    36.205557 
   58000   -94951.737    305.42613    -95235.95    166.71865   -1490.9138    660.28459    1330.7852    4.4610479    45.068251    44.968514    36.200901 
   58500   -94958.102    301.55045   -95238.708    786.74366   -253.50211    1286.6277    1327.1054    3.9212984    45.055394    44.971592    36.200405 
   59000   -94959.037    298.22693    -95236.55   -469.77156   -282.13375    -868.0209   -259.16004    3.5898825    45.006318    45.021607    36.223638 
   59500    -94954.13    302.17132   -95235.313    462.22658    1302.7667    306.64052   -222.72752    3.3766843    44.978108    45.025536    36.229953 
   60000   -94947.888    302.71667   -95229.579    14.638478    909.87659    186.09542   -1052.0566     3.538711    44.989591    45.015742    36.235657 
   60500   -94948.263    306.37521   -95233.359   -188.35069    298.74787     220.9775   -1084.7774    3.4707684    45.005022    44.998904    36.232478 
   61000   -94954.644    299.40288   -95233.251     226.8859   -274.63358    1841.3913   -886.10003    3.2758484    45.031315     44.96913    36.229644 
   61500   -94959.892     295.0945    -95234.49   -836.15876     -845.843    213.49872    -1876.132    3.1507283    45.022944    44.992476    36.231175 
   62000   -94955.103     302.7642   -95236.838    871.07923    2265.4935   -156.15376     503.8979    3.2112342    44.955705    45.052138    36.221635 
   62500   -94951.071    304.46876   -95234.392    1768.7171    2411.8741    270.22058    2624.0568    3.3191702    44.949047    45.062196    36.207395 
   63000   -94953.257    301.80587     -95234.1    78.606773   -799.09152   -71.808793    1106.7206    3.2576817    45.017533    45.023742    36.202053 
   63500   -94956.638    301.55973   -95237.253   -1466.0913   -2630.2643    -1303.328   -464.68153    3.4779381    45.062398     44.99929    36.205667 
   64000   -94956.772    297.97347    -95234.05    187.60344    -485.9342     199.3505    849.39401    3.7935996    45.043108    44.992326    36.202754 
   64500   -94947.081    302.05384   -95228.156    321.44763    91.097217    140.31044    732.93522    3.5344718    45.016773    45.008368    36.211311 
   65000   -94950.116    302.36362   -95231.479     9.432197    303.11897    -546.1065    271.28413    3.7920763    44.980819    45.043871    36.219077 
   65500   -94952.605    300.96961    -95232.67   -2161.8227   -934.68562    -2736.463   -2814.3194    3.5078307    44.963083    45.074974      36.2388 
   66000   -94956.461    296.93424   -95232.771   -398.01835    612.18241    330.89487   -2137.1323    3.3935892    44.999482    44.998144    36.240809 
   66500   -94964.252    295.54629   -95239.271         1866    1756.7945    3358.3171    482.88849    3.2664752    45.033073    44.942173    36.223554 
   67000   -94954.221    300.03419   -95233.416    -216.4614   -514.44932    880.68381   -1015.6187    3.4238178    45.032239    44.979609    36.225877 
   67500   -94953.099    300.49699   -95232.725   -1259.8874   -989.65351   -1088.3185   -1701.6903    3.9281771    45.009778    45.023528    36.227496 
   68000   -94955.247     302.3188   -95236.567   -272.47436   -244.14992   -847.88639    274.61323    3.9848108    44.985849    45.045679     36.21429 
   68500   -94961.358    296.41443   -95237.184    2032.4965    1742.0798    800.62221    3554.7873    3.3122031     44.98198    45.032832    36.194103 
   69000   -94959.762    301.36186   -95240.192   -1704.6233   -3042.3438   -1752.2639   -319.26217    3.4347702     45.06585    45.002969    36.203769 
   69500   -94957.866    298.41127   -95235.551   -2777.2755   -4090.6315   -1924.6531   -2316.5419    3.1972776    45.080008    44.989457    36.217685 
   70000   -94954.866    302.53755    -95236.39    1081.2975    982.81964    940.01752    1321.0554    3.0239222    45.013281    44.999725    36.205667 
   70500   -94951.483    302.64766    -95233.11   -30.321826    457.45517    -377.6085   -170.81216    3.2746923    44.993604    45.025828    36.221811 
   71000   -94954.806    300.04606   -95234.012   -741.18028    3.0408203   -753.39764    -1473.184    3.8371917    44.990958    45.030709    36.233772 
   71500   -94955.648    298.81716    -95233.71    307.66744     609.5126    1310.6944    -997.2047    3.2264076    44.998604    44.996432    36.234579 
   72000   -94957.811     295.8709   -95233.132    526.77937    1236.8234    1837.2369   -1493.7222    3.4621072    45.012405    44.968633    36.243126 
   72500   -94954.356    297.62329   -95231.307   -638.31098    173.40724    936.12488   -3024.4651    3.4325444    45.017968     44.97634    36.251209 
   73000   -94953.583    302.58698   -95235.154    108.38247    1344.2534    632.84546   -1651.9514    3.9231535    44.980132    45.009383     36.24417 
   73500   -94959.161    298.49987   -95236.928    1252.1894    2363.1178    1165.6535    227.79685    3.3963777     44.95809    45.025144    36.227229 
   74000   -94957.599    297.24161   -95234.196   -360.98209     318.1442   -269.74504   -1131.3454    3.2328449    44.990893    45.023927    36.228128 
   74500   -94956.944    300.04439   -95236.149   -1407.3568    -1450.993   -1106.9125   -1664.1649    3.6389963    45.032707    45.004992    36.224047 
   75000   -94946.901    303.23454   -95229.074     807.1056    78.006275    547.16242    1796.1481    3.6104375    45.025924    45.000042    36.205538 
   75500   -94956.184    299.37538   -95234.766    1004.1347    595.11127   -3.6192148    2420.9122    3.6080151    45.008619     45.01967    36.200331 
   76000   -94956.785    298.84363   -95234.872   -1874.5312   -1773.7607    -2841.849    -1007.984    3.6701744    45.009723    45.054812     36.21389 
   76500   -94951.753    303.47706   -95234.152    123.31498   -161.37788   -530.79921     1062.122    3.2925404    45.003532    45.037242    36.206478 
   77000   -94947.817    303.89618   -95230.605    2420.0194    1913.6774     2079.809    3266.5717     3.564987    45.009586    44.997656    36.197666 
   77500   -94951.368    305.55239   -95235.697   -1174.4276    -1867.833   -445.17211   -1210.2778    3.1871115    45.038926     44.99949     36.22444 
   78000   -94953.511    300.79316   -95233.412   -1378.3171   -1721.8638   -856.92043    -1556.167    4.0475938    45.033844    45.008092    36.224994 
   78500   -94956.139    298.23684   -95233.662     2079.369    2931.5154    1718.8125     1587.779     3.458212    44.971886    45.013225    36.216935 
   79000   -94953.022    299.13234   -95231.378    1795.8285    2908.3094    1822.3323     656.8439    3.4265384    44.950489    45.026758     36.22636 
   79500   -94954.134    299.61132   -95232.935   -2715.7055    -1674.315   -2065.8168   -4406.9847    3.4757949    45.003908    45.026145      36.2513 
   80000   -94956.792    297.62229   -95233.742    233.30365    626.25554     1234.445   -1160.7896    3.2663803    45.021578     44.98096    36.229656 
   80500   -94957.785    296.64058   -95233.822    539.77258    530.79875     1311.006   -222.48697     3.884419    45.026801    44.975037    36.220652 
   81000    -94954.97     301.9736    -95235.97   -674.81727   -881.46194   -495.95306   -647.03681    3.1703245    45.015635     45.01219    36.223812 
   81500    -94951.64    306.25854   -95236.627    -838.9206    266.59403   -1785.3076   -998.04825    3.4239463     44.97843    45.056472    36.226864 
   82000   -94950.584    299.18269   -95228.986    948.32781    1310.9962   -479.63121    2013.6184    3.1752871    44.969713     45.05229    36.210182 
   82500   -94952.197    300.41434   -95231.746    1124.1174   -104.47783    871.48023    2605.3497    3.8447571    45.032605    45.001634    36.198996 
   83000   -94956.348    299.25605   -95234.819   -1280.7723   -3092.2501   -684.49505   -65.571644    3.5238728     45.08547    44.978832    36.205159 
   83500   -94953.006    300.77402    -95232.89    85.687802   -766.17479   -55.104383    1078.3426    3.6734984    45.038831    44.998953    36.201999 
   84000   -94948.619    302.39648   -95230.012    932.30651    943.61685    377.30805    1475.9946    3.6311103    45.000517    45.022784    36.209056 
   84500   -94952.323    300.00851   -95231.494   -1341.8725   -1110.6116   -1795.5099   -1119.4962    3.4296349    45.003702     45.04095     36.22729 
   85000   -94957.389    297.84272   -95234.545    351.59089    209.04292    169.43959    676.29017    3.6626796    45.004594    45.015558     36.22052 
   85500   -94959.128    294.59271   -95233.259    1592.4046    1334.7284    1667.7813    1774.7042    4.0003499    45.020416     44.97883    36.215046 
   86000    -94961.76    295.43824   -95236.678    -397.6265   -490.15334     665.1952   -1367.9214    3.5807529    45.042304    44.970414    36.229631 
   86500   -94956.321    301.21884   -95236.619   -1436.1465   -1038.9174   -175.61091   -3093.9111    3.1861291    45.026547    44.989925    36.240572 
   87000   -94953.435    299.06659    -95231.73    1410.1513    2360.3449    1470.4382     399.6707    3.3370841    44.960592    45.022877    36.225779 
   87500   -94952.559     301.3948    -95233.02    489.84788    1733.3593    29.312046    -293.1277    3.2171087    44.961615    45.042346    36.226195 
   88000   -94965.319    296.44475   -95241.174   -1664.4918   -1240.3486   -1828.2659   -1924.8609    3.4909181    45.009565    45.032802    36.224049 
   88500   -94956.853    299.66073     -95235.7    838.85114   -122.59203    1075.9157    1563.2297    3.5038582    45.034288     44.98725    36.212109 
   89000   -94954.355    298.30929   -95231.945    1396.5304    386.57754    1447.6046    2355.4089    3.2851068    45.022181     44.99381    36.205178 
   89500    -94950.12    300.06837   -95229.347   -375.86467   -724.78148   -1315.5699     912.7574    3.4598018    45.012739    45.037577    36.206183 
   90000   -94954.198     299.6654    -95233.05   -2502.7871    -2459.396   -4966.0025   -82.962885    3.4253113    44.991499    45.101062    36.202515 
   90500    -94957.65    296.45687   -95233.516    662.70467    450.42957   -632.69973    2170.3842    3.2202565    45.003532    45.038652     36.19106 
   91000   -94953.883    301.98465   -95234.893    1313.5828    74.748789    1945.7264    1920.2733    3.4951235    45.037386    44.980939    36.198639 
   91500   -94953.167    302.15906   -95234.339   -694.28143   -1353.3621   -321.57918   -407.90296    3.5671374    45.046703    44.989683    36.221867 
   92000   -94957.398    302.71872   -95239.091   -602.74216   -49.899889   -759.92824   -998.39835    3.4313583    45.005757    45.019029    36.226495 
   92500   -94955.163    301.98554   -95236.174    1512.0134    2528.5375    977.76996    1029.7329    3.6141905    44.962771    45.024467    36.217825 
   93000   -94950.196    305.08658   -95234.093    113.15617    1063.3547    695.86484   -1419.7511    3.3997075    44.979224    45.022891     36.23155 
   93500   -94951.628    303.49559   -95234.044   -2684.7582   -1968.1466   -1132.1632   -4953.9648    3.7104985    45.027036    44.997524    36.251771 
   94000   -94953.733    300.38573   -95233.256    404.47828     451.6624    1420.0272   -658.25479    3.3217713    45.032025    44.969939    36.226507 
   94500   -94958.098    296.59999   -95234.098    978.28103    993.94162    1101.0376    839.86389    4.3698103     45.01035    44.997236    36.216236 
   95000   -94959.218    298.92771   -95237.383   -860.77677   -522.56885   -836.51723   -1223.2442    3.8326522    45.006228    45.023222     36.22435 
   95500   -94954.828    301.46714   -95235.357   -611.91456   -234.96499   -899.59752   -701.18116     3.438086    44.998343    45.031667    36.226283 
   96000   -94953.063    301.12486   -95233.273    1318.7403    1315.1844    1233.8426    1407.1938    3.4458733    45.013903    44.998078     36.20849 
   96500   -94961.708    298.70372   -95239.665   -359.17387   -1196.0878    -193.3675    311.93368    3.1381703    45.051447    44.987907     36.20668 
   97000   -94954.522    300.76276   -95234.395   -3092.6978   -4227.6653   -3456.1168   -1594.3114    3.6118102    45.068968     45.01745    36.215766 
   97500    -94952.43    305.28312    -95236.51    2166.8567    1359.8237    963.88512    4176.8614    3.3380912    44.993966    45.026617    36.191745 
   98000   -94949.515    305.58446   -95233.875    1198.7787     1255.925    40.111859    2300.2991    3.4423281     44.97924    45.042648    36.199403 
   98500   -94946.317    302.83954   -95228.122   -1888.1773   -2098.6353   -2414.3483   -1151.5483    4.5942325    45.023927    45.032998    36.221431 
   99000   -94957.291    301.12435   -95237.501   -487.04137   -857.99551   -205.32299    -397.8056    3.1578027    45.034726    44.990619    36.219765 
   99500   -94957.534    298.60383   -95235.398    1460.0409    1180.6152    1972.4181    1227.0896    3.7613184    45.017168    44.975474      36.2139 
  100000   -94950.431     302.5007   -95231.921   -116.84785    697.46681    176.88048   -1224.8909     3.379042    44.990966    45.018156    36.231818 
  100500   -94950.983     302.4922   -95232.466   -1760.0106   -338.52193   -1721.9083   -3219.6016    3.4565261    44.981101    45.046179    36.245364 
  101000   -94953.753    300.09922   -95233.008    1231.4626    2464.9962    1837.0449   -607.65339    3.2675053    44.971743    45.006876    36.233237 
  101500   -94956.509    298.01892   -95233.829    1717.7044    1837.5757    2910.7772    404.76023    3.1521329    45.010396    44.962664    36.232228 
  102000     -94960.8    296.03597   -95236.275   -1582.0117   -1836.1943   -498.25569    -2411.585     4.213812    45.040912     44.98228     36.24144 
  102500   -94952.898    303.00172   -95234.854    14.517231    413.18838    323.10869   -692.74538    3.6313389    45.010384    44.998291    36.228058 
  103000   -94951.778    304.46969   -95235.101    823.34185    1542.4529    825.95111    101.62156     3.252039    44.993305    45.015501    36.217914 
  103500   -94961.495     295.9162   -95236.858   -1113.5356   -1248.0442   -1189.0398   -903.52274    3.2406738     45.00955    45.027855    36.221272 
  104000   -94960.039    298.43642   -95237.747   -462.64791   -1419.0568   -542.95745    574.07054    3.0667281    45.027915    45.015261    36.210995 
  104500   -94953.571    302.03976   -95234.632    2214.1779    628.17024    1838.0575     4176.306    3.2708078    45.029663    44.993838    36.188223 
  105000   -94951.136    301.98258   -95232.144   -28.844938   -1800.1467   -936.63115    2650.2431    3.3141227    45.056081    45.009648    36.192234 
  105500   -94955.033    301.21486   -95235.326   -2388.5497   -2961.6023   -3289.1252   -914.92163    3.6979045    45.034629    45.041369    36.212789 
  106000   -94957.969    294.49333   -95232.008    687.27188    441.90703    220.38133    1399.5273    3.0832568    44.992197    45.033078    36.205904 
  106500   -94953.928    298.96634   -95232.129    1916.6285    1748.3437    1403.1266    2598.4151    3.3335898    44.989159    45.016607    36.205234 
  107000   -94950.283    300.72011   -95230.116   -1226.4762    -1320.187   -1137.1642   -1222.0775    3.1875855    45.027894    45.014229    36.229901 
  107500   -94952.391    301.64128   -95233.082   -1590.2793   -1570.5268    -995.2488   -2205.0625    3.9332512    45.034076    44.998817    36.232653 
  108000   -94954.596    300.55964    -95234.28     1185.076    1383.6421    2115.3623     56.22349    3.6082053    45.004337    44.987521     36.21779 
  108500   -94957.308    300.24323   -95236.698    1231.7388    1764.8253    1669.3394    261.05154    3.4672872    44.987553    45.002922    36.224791 
  109000   -94956.585    300.02535   -95235.772   -1656.6447   -471.42326   -1486.9412   -3011.5695    3.7798646    44.995484     45.02573    36.242063 
  109500   -94957.378     295.5254   -95232.377   -670.85757   -69.249935   -261.80349   -1681.5193    3.2503661    45.002984     45.01078    36.232428 
  110000   -94953.452    302.08275   -95234.553    1295.3933    1421.1155    1649.0522    816.01228    3.6989312    45.014637    44.984425    36.214724 
  110500   -94949.923    300.79274   -95229.824   -306.87471    -809.8898    34.579659   -145.31398    3.2492594    45.033989    44.999055    36.218111 
  111000   -94952.077    299.55334   -95230.824   -1964.7454   -1612.5824   -2180.3838   -2101.2699    3.1867738     45.01762    45.043796    36.219607 
  111500   -94956.618    297.47522   -95233.432    2004.0143    2135.0072    372.15006    3504.8856    3.3808444    44.971477    45.052815    36.185804 
  112000   -94957.293    295.89814   -95232.639    653.28375    134.55048   -486.63977    2311.9406    3.9400641    45.009179    45.037581    36.190207 
  112500   -94947.926     307.2573   -95233.843   -1328.5535   -2494.6223   -1431.1063   -59.931866    3.0824598    45.048795    45.015075    36.209622 
  113000   -94950.629    302.94964   -95232.536    58.535339   -953.80535   -157.93892    1287.3503    3.3424624    45.038082    45.004991    36.206406 
  113500   -94956.825    300.98665   -95236.906     335.7671   -389.72479    -174.6236    1571.6497    3.4950526    45.021552    45.013527    36.205582 
  114000   -94951.904    299.17654     -95230.3   -270.35894   -263.97578   -527.68999   -19.411038    4.5080787    45.005415    45.025057     36.21811 
Loop time of 913.67 on 10 procs for 64000 steps with 7200 atoms

Performance: 6.052 ns/day, 3.966 hours/ns, 70.047 timesteps/s
96.9% CPU use with 10 MPI tasks x 1 OpenMP threads

MPI task timing breakdown:
Section |  min time  |  avg time  |  max time  |%varavg| %total
---------------------------------------------------------------
Pair    | 333.73     | 361.34     | 479.52     | 214.8 | 39.55
Kspace  | 156.64     | 296.99     | 334.84     | 281.3 | 32.50
Neigh   | 0          | 0          | 0          |   0.0 |  0.00
Comm    | 185.64     | 192.64     | 201.95     |  40.9 | 21.08
Output  | 2.7884     | 2.9815     | 3.165      |   7.0 |  0.33
Modify  | 30.268     | 33.384     | 47.138     |  83.6 |  3.65
Other   |            | 26.34      |            |       |  2.88

Nlocal:        720.000 ave         730 max         714 min
Histogram: 3 1 0 1 2 1 0 0 1 1
Nghost:        157648.0 ave      157681 max      157598 min
Histogram: 2 1 0 1 0 0 0 0 3 3
Neighs:        410740.0 ave      420203 max      397821 min
Histogram: 1 0 1 1 0 3 0 1 1 2

Total # of neighbors = 4107398
Ave neighs/atom = 570.47194
Neighbor list builds = 0
Dangerous builds = 0
unfix           SQW

#fix             SQW all nve
#run             ${sqw_run}
#unfix           SQW

# --------------------------------------------------------------------------------------------------
# finalize stuff
# --------------------------------------------------------------------------------------------------

undump          POSITIONS
undump          TRJ

write_data      rutile.post_sqw.pos
System init for write_data ...
PPPM initialization ...
  using 12-bit tables for long-range coulomb (src/kspace.cpp:340)
  G vector (1/distance) = 0.27468085
  grid = 45 45 40
  stencil order = 5
  estimated absolute RMS force accuracy = 0.00016846643
  estimated relative force accuracy = 1.1699346e-05
  using double precision FFTW3
  3d grid and FFT values/proc = 21808 8280
WARNING: Not all mixed pair coeffs generated from mixing. Use write_data with 'pair ij' option to store all pair coeffs. (src/write_data.cpp:312)



Total wall time: 0:27:26
